NAME: tsp40_12
COMMENT: 40-tsp problem (Padberg/Rinaldi)
TYPE: TSP
DIMENSION: 40
EDGE_WEIGHT_TYPE : EUC_2D
NODE_COORD_SECTION
1 9 17
2 4 4
3 38 9
4 38 14
5 37 19
6 29 28
7 10 24
8 27 36
9 11 3
10 3 3
11 35 13
12 5 20
13 29 5
14 18 16
15 36 12
16 5 24
17 35 22
18 39 10
19 16 27
20 26 4
21 32 36
22 39 18
23 29 29
24 0 26
25 35 13
26 14 32
27 24 15
28 38 5
29 30 11
30 34 10
31 13 29
32 2 23
33 25 6
34 3 32
35 24 35
36 33 15
37 39 18
38 30 38
39 16 1
40 1 3
